n = 8;
k = 115;
price = [23, 18, 16, 15, 15, 21, 21, 23];
m = 25;
buy = [3, 3, 5, 2, 4, 3, 6, 2, 5, 3, 3, 5, 5, 2, 2, 3, 6, 3, 6, 4, 2, 6, 4, 5, 3];
free = [1, 1, 2, 1, 2, 1, 2, 1, 2, 1, 1, 2, 2, 1, 1, 1, 2, 1, 2, 2, 1, 2, 2, 2, 1];
